
Gurobi 7.0.2 (linux64, Python) logging started Mon May 15 20:45:13 2017


Gurobi 7.0.2 (linux64, Python) logging started Mon May 15 20:50:52 2017


Gurobi 7.0.2 (linux64, Python) logging started Mon May 15 20:52:38 2017


Gurobi 7.0.2 (linux64, Python) logging started Mon May 15 20:59:07 2017


Gurobi 7.0.2 (linux64, Python) logging started Mon May 15 21:01:53 2017


Gurobi 7.0.2 (linux64, Python) logging started Mon May 15 21:02:26 2017


Gurobi 7.0.2 (linux64, Python) logging started Mon May 15 21:03:21 2017


Gurobi 7.0.2 (linux64, Python) logging started Mon May 15 21:05:57 2017


Gurobi 7.0.2 (linux64, Python) logging started Mon May 15 21:09:28 2017


Gurobi 7.0.2 (linux64, Python) logging started Mon May 15 21:11:39 2017


Gurobi 7.0.2 (linux64, Python) logging started Mon May 15 21:15:42 2017


Gurobi 7.0.2 (linux64, Python) logging started Mon May 15 21:23:33 2017


Gurobi 7.0.2 (linux64, Python) logging started Mon May 15 21:24:11 2017


Gurobi 7.0.2 (linux64, Python) logging started Mon May 15 21:25:03 2017


Gurobi 7.0.2 (linux64, Python) logging started Mon May 15 21:25:55 2017


Gurobi 7.0.2 (linux64, Python) logging started Mon May 15 21:28:04 2017


Gurobi 7.0.2 (linux64, Python) logging started Mon May 15 21:29:30 2017


Gurobi 7.0.2 (linux64, Python) logging started Mon May 15 21:32:21 2017


Gurobi 7.0.2 (linux64, Python) logging started Mon May 15 21:35:36 2017


Gurobi 7.0.2 (linux64, Python) logging started Mon May 15 21:49:11 2017


Gurobi 7.0.2 (linux64, Python) logging started Tue May 16 14:07:00 2017


Gurobi 7.0.2 (linux64, Python) logging started Tue May 16 14:11:58 2017


Gurobi 7.0.2 (linux64, Python) logging started Tue May 16 15:38:21 2017


Gurobi 7.0.2 (linux64, Python) logging started Tue May 16 15:51:53 2017

